(set-logic QF_S)
(declare-fun var0 () String)
(declare-fun var1 () String)
(declare-fun var2 () Int)
(declare-fun var3 () String)
(declare-fun var4 () Int)
(declare-fun var5 () String)
(declare-fun var6 () Int)
(declare-fun var7 () Int)
(assert (>= (str.len (str.at var0 41)) (str.indexof (str.at var1 var2) (str.at var3 var4) (str.to.int var5))))
(assert (> var6 20))
(assert (str.suffixof var1 var5))
(assert (>= (str.indexof var0 var0 var7) (str.to.int (str.substr var5 var4 var4))))
(check-sat)